16
169122 319363
435204 924519
480076 1016542
638597 1387079
906325 1840227
613953 1346660
713858 1515021
817993 1572948
18612 37076
819650 1702673
867495 1623789
992711 1968433
509674 1004311
103140 221324
481247 956448
334219 692230
4450938